c Grafo no formato DIMACS 
p edge 50 103 
e 1 48 
e 1 36 
e 1 28 
e 1 24 
e 1 23 
e 1 22 
e 2 49 
e 2 23 
e 2 15 
e 3 35 
e 3 26 
e 3 19 
e 3 16 
e 3 9 
e 3 6 
e 4 48 
e 4 40 
e 4 34 
e 4 31 
e 4 25 
e 4 24 
e 5 46 
e 5 38 
e 5 36 
e 5 12 
e 5 9 
e 6 50 
e 6 26 
e 6 25 
e 6 8 
e 7 21 
e 8 21 
e 9 47 
e 9 39 
e 9 33 
e 9 10 
e 10 50 
e 10 35 
e 10 29 
e 10 28 
e 10 15 
e 11 49 
e 11 37 
e 11 35 
e 11 12 
e 12 49 
e 12 33 
e 12 24 
e 13 45 
e 13 31 
e 13 30 
e 13 19 
e 14 45 
e 14 26 
e 15 50 
e 15 46 
e 15 37 
e 15 33 
e 15 32 
e 15 18 
e 16 46 
e 16 23 
e 16 17 
e 17 34 
e 18 24 
e 18 21 
e 18 20 
e 19 46 
e 19 44 
e 19 39 
e 19 36 
e 19 27 
e 20 46 
e 20 41 
e 20 28 
e 21 34 
e 22 36 
e 22 27 
e 23 46 
e 24 48 
e 24 44 
e 24 41 
e 25 38 
e 25 37 
e 25 35 
e 27 35 
e 28 46 
e 28 45 
e 28 40 
e 28 33 
e 29 40 
e 29 38 
e 32 37 
e 33 43 
e 33 38 
e 34 49 
e 35 43 
e 35 40 
e 39 46 
e 41 43 
e 43 46 
e 44 49 
e 44 45 
